(declare-fun temp18826_1 () (_ BitVec 64))
(declare-fun temp18826_2 () (_ BitVec 64))
(declare-fun var148331 () (_ BitVec 64))
(declare-fun k!0 () Bool)
(declare-fun ARGNAME_input_NAMEEND_DIM () (_ BitVec 64))
(declare-fun temp18826_3 () (_ BitVec 64))
(declare-fun temp18826_4 () (_ BitVec 64))
(declare-fun ARGNAME_input_NAMEEND_DIMSIZE
             ()
             (Array (_ BitVec 64) (_ BitVec 64)))
(declare-fun temp18826_5 () (_ BitVec 64))
(declare-fun temp18826_6 () (_ BitVec 64))
(declare-fun temp18826_7 () (_ BitVec 64))
(declare-fun temp18826_8 () (_ BitVec 64))
(declare-fun temp18826_9 () (_ BitVec 64))
(declare-fun temp18826_10 () (_ BitVec 64))
(declare-fun temp18826_11 () (_ BitVec 64))
(declare-fun temp18826_12 () (_ BitVec 64))
(declare-fun temp18826_13 () (_ BitVec 64))
(declare-fun temp18826_14 () (_ BitVec 64))
(declare-fun temp18826_15 () (_ BitVec 64))
(declare-fun temp18826_16 () (_ BitVec 64))
(declare-fun temp18826_17 () (_ BitVec 64))
(declare-fun temp18826_18 () (_ BitVec 64))
(declare-fun temp18826_19 () (_ BitVec 64))
(declare-fun temp18826_20 () (_ BitVec 64))
(declare-fun temp18826_21 () (_ BitVec 64))
(declare-fun var148344 () (_ BitVec 64))
(declare-fun temp18826_22 () (_ BitVec 64))
(declare-fun temp18826_23 () (_ BitVec 64))
(declare-fun var148345 () (_ BitVec 64))
(declare-fun temp18826_25 () (_ BitVec 64))
(declare-fun temp18826_24 () (_ BitVec 64))
(declare-fun temp18826_27 () (_ BitVec 64))
(declare-fun temp18826_26 () (_ BitVec 64))
(declare-fun ARGNAME_split_sizes_NAMEEND_LEN () (_ BitVec 64))
(declare-fun var396610 () (_ BitVec 64))
(declare-fun temp18826_28 () (_ BitVec 64))
(declare-fun temp18826_29 () (_ BitVec 64))
(declare-fun var462151 () (_ BitVec 64))
(declare-fun var527698 () (_ BitVec 64))
(declare-fun temp18826_30 () (_ BitVec 64))
(declare-fun var1064603 () (_ BitVec 64))
(declare-fun temp18826_31 () (_ BitVec 64))
(declare-fun var1064652 () (_ BitVec 64))
(declare-fun temp18826_32 () (_ BitVec 64))
(declare-fun temp18826_33 () (_ BitVec 64))
(declare-fun var1315402 () (_ BitVec 64))
(declare-fun temp18826_34 () (_ BitVec 64))
(declare-fun var2036298 () (_ BitVec 64))
(declare-fun temp18826_35 () (_ BitVec 64))
(declare-fun var1064769 () (_ BitVec 64))
(declare-fun temp18826_36 () (_ BitVec 64))
(declare-fun temp18826_37 () (_ BitVec 64))
(declare-fun var3291804 () (_ BitVec 64))
(declare-fun var3291808 () (_ BitVec 64))
(declare-fun temp18826_38 () (_ BitVec 64))
(declare-fun temp18826_39 () (_ BitVec 64))
(declare-fun var3941241 () (_ BitVec 64))
(declare-fun var3941245 () (_ BitVec 64))
(declare-fun temp18826_40 () (_ BitVec 64))
(declare-fun temp18826_41 () (_ BitVec 64))
(declare-fun var4268921 () (_ BitVec 64))
(declare-fun var4268925 () (_ BitVec 64))
(declare-fun temp18826_43 () (_ BitVec 64))
(declare-fun temp18826_42 () (_ BitVec 64))
(declare-fun var148387 () (_ BitVec 64))
(declare-fun var148388 () (_ BitVec 64))
(declare-fun temp18826_44 () (_ BitVec 64))
(declare-fun temp18826_45 () (_ BitVec 64))
(declare-fun var7802660 () (_ BitVec 64))
(declare-fun temp18826_46 () (_ BitVec 64))
(declare-fun var7802675 () (_ BitVec 64))
(declare-fun temp18826_47 () (_ BitVec 64))
(declare-fun var7802677 () (_ BitVec 64))
(declare-fun temp18826_48 () (_ BitVec 64))
(declare-fun var7802740 () (_ BitVec 64))
(declare-fun temp18826_49 () (_ BitVec 64))
(declare-fun var7868196 () (_ BitVec 64))
(declare-fun temp18826_50 () (_ BitVec 64))
(declare-fun var7868211 () (_ BitVec 64))
(declare-fun temp18826_51 () (_ BitVec 64))
(declare-fun var7868213 () (_ BitVec 64))
(declare-fun temp18826_52 () (_ BitVec 64))
(declare-fun var7868276 () (_ BitVec 64))
(declare-fun temp18826_53 () (_ BitVec 64))
(declare-fun var8077708 () (_ BitVec 64))
(declare-fun temp18826_54 () (_ BitVec 64))
(declare-fun var8261412 () (_ BitVec 64))
(declare-fun temp18826_55 () (_ BitVec 64))
(declare-fun var8261427 () (_ BitVec 64))
(declare-fun temp18826_56 () (_ BitVec 64))
(declare-fun var8261429 () (_ BitVec 64))
(declare-fun temp18826_57 () (_ BitVec 64))
(declare-fun var8261492 () (_ BitVec 64))
(declare-fun temp18826_58 () (_ BitVec 64))
(declare-fun var8326948 () (_ BitVec 64))
(declare-fun temp18826_59 () (_ BitVec 64))
(declare-fun var8326963 () (_ BitVec 64))
(declare-fun temp18826_60 () (_ BitVec 64))
(declare-fun var8326965 () (_ BitVec 64))
(declare-fun temp18826_61 () (_ BitVec 64))
(declare-fun var8327028 () (_ BitVec 64))
(assert (= temp18826_1 #x0000000000000000))
(assert (= var148331
   (ite (= ARGNAME_input_NAMEEND_DIM temp18826_1)
        #x0000000000000001
        #x0000000000000000)))
(assert (= temp18826_2 #x0000000000000000))
(assert (= var148331 temp18826_2))
(assert (= temp18826_3 #x0000000000000000))
(assert (= temp18826_4 temp18826_3))
(assert (= temp18826_5 (select ARGNAME_input_NAMEEND_DIMSIZE temp18826_4)))
(assert (= temp18826_6 #x0000000000000001))
(assert (= temp18826_7 temp18826_6))
(assert (= temp18826_8 (select ARGNAME_input_NAMEEND_DIMSIZE temp18826_7)))
(assert (= temp18826_9 #x0000000000000002))
(assert (= temp18826_10 temp18826_9))
(assert (= temp18826_11 (select ARGNAME_input_NAMEEND_DIMSIZE temp18826_10)))
(assert (= temp18826_12 #x0000000000000003))
(assert (= temp18826_13 temp18826_12))
(assert (= temp18826_14 (select ARGNAME_input_NAMEEND_DIMSIZE temp18826_13)))
(assert (= temp18826_15 #x0000000000000004))
(assert (= temp18826_16 temp18826_15))
(assert (= temp18826_17 (select ARGNAME_input_NAMEEND_DIMSIZE temp18826_16)))
(assert (= temp18826_18 #x0000000000000005))
(assert (= temp18826_19 temp18826_18))
(assert (= temp18826_20 (select ARGNAME_input_NAMEEND_DIMSIZE temp18826_19)))
(assert (= temp18826_21 #x0000000000000000))
(assert (= temp18826_22
   (ite (bvslt var148344 temp18826_21)
        (bvadd ARGNAME_input_NAMEEND_DIM var148344)
        var148344)))
(assert (= temp18826_23 (select ARGNAME_input_NAMEEND_DIMSIZE temp18826_22)))
(assert (= var148345 temp18826_23))
(assert (bvslt (ite (bvslt var148344 temp18826_21)
            (bvadd ARGNAME_input_NAMEEND_DIM var148344)
            var148344)
       ARGNAME_input_NAMEEND_DIM))
(assert (= temp18826_25 #x0000000000000000))
(assert (= temp18826_24 temp18826_25))
(assert (= temp18826_27 #x0000000000000000))
(assert (= temp18826_26 temp18826_27))
(assert (= var396610
   (ite (bvslt temp18826_26 ARGNAME_split_sizes_NAMEEND_LEN)
        #x0000000000000001
        #x0000000000000000)))
(assert (= temp18826_28
   (ite (= var396610 #x0000000000000001)
        ARGNAME_split_sizes_NAMEEND_LEN
        temp18826_26)))
(assert (= temp18826_29 #x0000000000000000))
(assert (= var462151 temp18826_29))
(assert (= var527698 var462151))
(assert (= temp18826_30 #x0000000000000001))
(assert (= var1064603 temp18826_30))
(assert (= temp18826_31 #x0000000000000000))
(assert (= var1064652
   (ite (= ARGNAME_input_NAMEEND_DIM temp18826_31)
        #x0000000000000001
        #x0000000000000000)))
(assert (= temp18826_32 #x0000000000000000))
(assert (= var1064652 temp18826_32))
(assert (= temp18826_33 #x0000000000000005))
(assert (= var1315402 temp18826_33))
(assert (= temp18826_34 #x0000000000000005))
(assert (= var2036298 temp18826_34))
(assert (= temp18826_35 #x0000000000000001))
(assert (= var1064769
   (ite (bvslt var1064603 temp18826_35) #x0000000000000001 #x0000000000000000)))
(assert (= temp18826_36 #x0000000000000000))
(assert (= var1064769 temp18826_36))
(assert (= temp18826_37 #x0000000000000000))
(assert (= var3291804 temp18826_37))
(assert (= var3291808 var1064603))
(assert (= temp18826_38 #x0000000000000000))
(assert (= var3291804 temp18826_38))
(assert (= temp18826_39 #x0000000000000000))
(assert (= var3941241 temp18826_39))
(assert (= var3941245 var3291808))
(assert (= temp18826_40 #x0000000000000000))
(assert (= var3291804 temp18826_40))
(assert (= temp18826_41 #x0000000000000000))
(assert (= var4268921 temp18826_41))
(assert (= var4268925 var3291808))
(assert (= temp18826_43 #x0000000000000000))
(assert (= temp18826_42 temp18826_43))
(assert (= var148387 var148345))
(assert (= var148388
   (ite (= temp18826_24 var148387) #x0000000000000001 #x0000000000000000)))
(assert (= temp18826_44 #x0000000000000001))
(assert (= var148388 temp18826_44))
(assert (= temp18826_45 #x0000000000000000))
(assert (= var7802660 temp18826_45))
(assert (= temp18826_46 #x0000000000003fff))
(assert (= var7802675 (bvand var7802660 temp18826_46)))
(assert (= temp18826_47 #x0000000000000000))
(assert (= var7802677
   (ite (= var7802675 temp18826_47) #x0000000000000001 #x0000000000000000)))
(assert (= temp18826_48 #x0000000000000001))
(assert (= var7802677 temp18826_48))
(assert (= var7802740 var7802660))
(assert (= temp18826_49 #x0000000000000000))
(assert (= var7868196 temp18826_49))
(assert (= temp18826_50 #x0000000000003fff))
(assert (= var7868211 (bvand var7868196 temp18826_50)))
(assert (= temp18826_51 #x0000000000000000))
(assert (= var7868213
   (ite (= var7868211 temp18826_51) #x0000000000000001 #x0000000000000000)))
(assert (= temp18826_52 #x0000000000000001))
(assert (= var7868213 temp18826_52))
(assert (= var7868276 var7868196))
(assert (= temp18826_53 #x0000000000000000))
(assert (= var8077708 temp18826_53))
(assert (= temp18826_54 #x0000000000000000))
(assert (= var8261412 temp18826_54))
(assert (= temp18826_55 #x0000000000003fff))
(assert (= var8261427 (bvand var8261412 temp18826_55)))
(assert (= temp18826_56 #x0000000000000000))
(assert (= var8261429
   (ite (= var8261427 temp18826_56) #x0000000000000001 #x0000000000000000)))
(assert (= temp18826_57 #x0000000000000001))
(assert (= var8261429 temp18826_57))
(assert (= var8261492 var8261412))
(assert (= temp18826_58 #x0000000000000000))
(assert (= var8326948 temp18826_58))
(assert (= temp18826_59 #x0000000000003fff))
(assert (= var8326963 (bvand var8326948 temp18826_59)))
(assert (= temp18826_60 #x0000000000000000))
(assert (= var8326965
   (ite (= var8326963 temp18826_60) #x0000000000000001 #x0000000000000000)))
(assert (= temp18826_61 #x0000000000000001))
(assert (= var8326965 temp18826_61))
(assert (= var8327028 var8326948))
(model-add temp18826_1 () (_ BitVec 64) #x0000000000000000)
(model-add temp18826_2 () (_ BitVec 64) #x0000000000000000)
(model-add var148331 () (_ BitVec 64) #x0000000000000000)
(model-del k!0)
(model-add ARGNAME_input_NAMEEND_DIM
           ()
           (_ BitVec 64)
           (ite k!0 #x0000000000000000 (bvnot #x0000000000000000)))






